NAME: Random_75_5
ELLAPSED_TIME_(ms): 0
TOUR_SIZE: 2006.1818
TOUR_SECTION
0
59
1
72
35
45
66
33
42
25
41
60
58
56
54
44
10
47
29
24
9
23
70
8
34
16
32
28
14
22
7
68
46
5
39
17
20
62
65
73
51
38
30
26
6
64
36
27
43
74
21
53
37
71
48
31
15
40
49
69
18
52
55
19
50
12
61
67
57
63
2
4
3
13
11
0
EOF
